<?xml version="1.0"?>
<xrdMeasurements xmlns="http://www.xrdml.com/XRDMeasurement/2.2" xmlns:xsi="http://www.w3.org/2001/XMLSchema-instance" xsi:schemaLocation="http://www.xrdml.com/XRDMeasurement/2.2 http://www.xrdml.com/XRDMeasurement/2.2/XRDMeasurement.xsd" status="Completed" recordIdentifier="{C6A8AB2B-C70C-4DF5-9B6F-391528B7890B}">
	<comment>
		<entry>Echantillon Maelly Zeynep</entry>
	</comment>
	<sample type="To be analyzed">
		<id>jfo</id>
		<name></name>
		<preparedBy></preparedBy>
	</sample>
	<xrdMeasurement measurementType="Scan" status="Completed" sampleMode="Reflection">
		<usedWavelength intended="K-Alpha 1">
			<kAlpha1 unit="Angstrom">1.5405980</kAlpha1>
			<kAlpha2 unit="Angstrom">1.5444260</kAlpha2>
			<kBeta unit="Angstrom">1.3922500</kBeta>
			<ratioKAlpha2KAlpha1>0.5000</ratioKAlpha2KAlpha1>
		</usedWavelength>
		<incidentBeamPath>
			<radius unit="mm">145.00</radius>
			<xRayTube id="1010048" name="Empyrean Cu LFF HR (9430 033 7310x) DK000000">
				<tension unit="kV">30.0</tension>
				<current unit="mA">10.0</current>
				<anodeMaterial>Cu</anodeMaterial>
				<focus type="Line">
					<length unit="mm">12.0</length>
					<width unit="mm">0.4</width>
					<takeOffAngle unit="deg">6.0</takeOffAngle>
				</focus>
			</xRayTube>
			<filter id="20010004" name="Beta-filter Nickel">
				<material>Ni</material>
				<thickness unit="mm">0.020</thickness>
			</filter>
			<sollerSlit id="21010002" name="Soller slits 0.04 rad.">
				<opening unit="rad">0.0400</opening>
			</sollerSlit>
			<mask id="22031000" name="Fixed mask 13 mm">
				<width unit="mm">9.00</width>
			</mask>
			<divergenceSlit id="22120001" name="Divergence slit 1°" xsi:type="fixedDivergenceSlitType">
				<distanceToSample unit="mm">50.00</distanceToSample>
				<height unit="mm">1.52</height>
			</divergenceSlit>
		</incidentBeamPath>
		<beamKnife id="29030100" name="Beam knife low"/>
		<sampleMovement xsi:type="spinningSampleMovementType">
			<spinnerRevolutionTime unit="seconds">1.0</spinnerRevolutionTime>
		</sampleMovement>
		<diffractedBeamPath>
			<radius unit="mm">145.00</radius>
			<antiScatterSlit id="22090040" name="AS slit 9 mm" xsi:type="fixedAntiScatterSlitType">
				<height unit="mm">9.00</height>
			</antiScatterSlit>
			<sollerSlit id="21020003" name="Large Soller slits 0.04 rad.">
				<opening unit="rad">0.0400</opening>
			</sollerSlit>
			<filter id="20030001" name="Large beta-filter Nickel">
				<material>Ni</material>
				<thickness unit="mm">0.020</thickness>
			</filter>
			<detector id="7010019" name="PIXcel1D-Medipix3 detector" xsi:type="rtmsDetectorType">
				<phd unit="keV">
					<lowerLevel>4.0</lowerLevel>
					<upperLevel>11.3</upperLevel>
				</phd>
				<mode>Scanning</mode>
				<activeLength unit="deg">5.542</activeLength>
			</detector>
		</diffractedBeamPath>
		<scan appendNumber="0" mode="Continuous" scanAxis="Gonio" status="Completed">
			<header>
				<startTimeStamp>2042-02-26T22:17:51+01:00</startTimeStamp>
				<endTimeStamp>2042-02-26T22:22:00+01:00</endTimeStamp>
				<author>
					<name>Instrument</name>
				</author>
				<source>
					<applicationSoftware version="1.6 (94)">PANalytical Aeris Instrument Suite</applicationSoftware>
					<instrumentControlSoftware version="3.0.0 20211014">AERIS</instrumentControlSoftware>
					<instrumentID>209559</instrumentID>
				</source>
			</header>
			<dataPoints>
				<positions axis="2Theta" unit="deg">
					<startPosition>10.01086644</startPosition>
					<endPosition>69.99361524</endPosition>
				</positions>
				<positions axis="Omega" unit="deg">
					<startPosition>5.00543322</startPosition>
					<endPosition>34.99680762</endPosition>
				</positions>
				<commonCountingTime unit="seconds">18.870</commonCountingTime>
				<counts unit="counts">301 342 346 350 321 292 304 368 317 327 348 344 314 319 303 275 341 327 356 315 341 303 327 318 309 314 337 320 346 306 320 349 332 294 317 341 344 300 323 333 334 318 330 312 333 308 317 334 336 333 333 311 305 318 322 316 336 337 305 304 339 322 302 297 310 337 323 333 325 325 314 325 323 336 351 345 304 310 307 325 304 314 320 297 336 324 317 347 298 346 325 296 327 325 312 316 311 320 312 304 303 299 331 321 320 290 293 306 327 336 353 295 310 308 303 323 340 321 291 344 338 349 323 313 324 342 321 321 316 342 329 332 350 332 336 328 334 341 331 305 350 332 323 297 318 322 306 316 316 335 325 311 315 336 341 298 325 328 311 342 332 330 331 349 335 302 317 306 318 325 360 330 339 326 321 336 293 335 316 302 293 305 320 350 342 289 349 336 349 302 319 321 312 337 352 316 309 315 328 314 304 317 327 304 315 301 318 308 325 334 339 345 339 299 304 329 320 320 315 303 288 311 345 310 320 312 314 318 334 320 330 325 291 315 308 301 301 310 311 306 308 317 293 337 341 318 305 343 341 320 283 303 337 308 345 301 317 318 301 323 321 331 340 318 324 333 298 295 323 306 308 301 327 348 290 336 345 306 320 305 331 311 329 283 312 292 299 317 310 331 339 315 320 310 316 292 324 346 313 322 320 295 270 289 346 299 329 323 310 325 290 314 344 298 279 311 292 292 314 284 356 346 313 316 336 348 310 312 331 304 329 285 298 338 304 320 296 287 323 302 347 288 302 302 305 302 324 344 336 324 329 291 315 312 294 303 317 319 347 360 322 300 329 336 305 318 332 300 331 362 330 350 359 351 353 378 396 338 398 384 375 399 438 404 410 468 489 510 598 569 626 773 777 811 964 1016 1075 1163 1191 1271 1290 1195 1083 976 835 714 648 607 516 473 522 483 423 431 418 394 394 397 354 331 399 367 317 360 337 334 328 348 336 351 346 320 359 346 325 359 313 333 331 303 324 323 318 347 336 332 331 320 353 320 330 281 329 323 283 336 326 313 326 333 323 338 324 304 330 303 337 302 307 301 344 297 340 299 313 294 315 327 319 330 316 332 342 341 326 361 336 354 362 386 366 418 404 453 465 431 420 448 497 437 472 479 494 469 427 463 446 503 461 486 463 501 512 502 566 590 701 808 961 1189 1292 1284 1106 820 712 507 416 410 403 388 374 403 432 409 397 400 411 408 411 387 407 376 349 374 376 367 387 362 359 408 391 343 353 352 375 364 369 337 365 362 381 378 359 338 419 392 364 380 365 365 373 373 385 364 358 324 375 362 339 359 361 342 358 329 343 356 328 359 345 338 346 316 317 332 345 336 348 356 344 334 308 361 364 339 371 341 372 374 348 379 358 375 391 427 424 466 475 483 436 422 448 406 343 358 361 359 328 327 350 360 328 348 296 339 323 343 359 320 354 336 350 345 314 336 328 356 345 311 310 324 331 354 344 293 329 333 338 322 318 333 327 297 296 318 340 321 331 316 333 337 306 355 308 318 327 284 350 317 325 334 287 302 309 310 321 260 343 286 330 337 334 302 311 313 314 298 324 315 313 333 299 301 291 346 308 310 320 305 319 335 299 347 333 301 307 295 284 312 305 314 298 304 305 315 327 300 309 318 324 322 306 333 326 290 310 301 312 292 322 302 324 300 326 316 300 317 313 328 316 295 310 316 296 279 275 284 298 342 329 360 297 326 312 356 324 301 311 292 320 322 322 325 328 290 333 284 311 310 286 303 298 315 309 301 303 311 316 303 315 314 282 307 333 295 278 317 347 328 337 248 287 311 265 316 300 315 310 351 326 311 304 287 330 284 315 328 324 293 278 308 328 304 293 291 321 303 310 299 316 321 326 331 340 277 306 309 331 306 289 313 292 324 321 298 319 303 317 349 329 285 274 311 308 289 333 316 269 304 284 304 319 309 285 290 300 329 308 300 307 308 304 279 309 326 298 331 303 286 278 319 335 271 339 329 303 342 303 321 329 377 417 479 482 566 543 464 473 425 438 391 327 318 334 304 352 313 310 329 302 295 294 263 304 307 315 311 261 266 313 313 300 326 315 303 296 294 290 292 325 299 322 307 302 350 358 365 353 353 337 397 428 504 537 681 794 942 1161 1269 1182 1022 905 785 615 512 425 352 340 341 339 287 303 284 288 309 319 325 345 298 278 306 338 337 322 330 304 281 304 314 306 321 342 324 348 335 303 294 329 334 349 335 353 387 399 437 466 530 683 818 1040 1190 1405 1431 1318 1128 1012 909 703 584 485 436 345 347 389 342 292 314 322 331 342 319 300 296 289 273 298 293 291 296 286 301 307 325 317 304 300 309 304 310 294 314 324 330 289 313 316 313 334 289 313 303 306 322 312 330 346 363 312 333 321 354 292 291 303 312 280 324 306 286 343 311 274 310 268 250 295 288 306 293 309 271 293 296 287 297 329 297 286 321 275 305 273 302 268 283 308 317 284 322 320 322 320 373 369 395 472 499 571 673 686 621 556 491 477 425 399 359 325 293 296 307 312 308 263 294 292 279 287 264 286 313 278 307 292 312 306 245 324 295 290 275 315 277 287 268 304 236 299 285 288 295 268 302 278 296 285 292 320 268 248 311 290 277 258 290 305 344 309 301 277 269 323 293 268 315 305 286 305 277 267 300 301 296 269 282 297 288 305 309 278 284 338 335 312 297 347 395 432 447 492 495 433 416 422 409 383 329 343 310 370 302 328 318 363 319 294 292 305 286 319 297 316 327 322 339 343 313 297 317 347 357 392 393 407 430 471 528 613 699 795 832 882 804 739 694 657 579 544 491 442 394 404 382 343 322 326 325 309 332 314 266 310 317 304 321 292 314 304 248 328 311 290 277 280 310 305 301 269 317 305 306 306 329 285 321 291 335 303 302 312 299 268 262 312 273 310 319 304 311 291 296 279 284 275 309 299 274 327 303 328 282 319 304 294 327 280 323 314 284 298 297 318 306 288 270 288 301 270 274 290 270 304 302 265 279 309 310 306 294 311 316 297 282 308 263 269 260 269 278 311 298 325 305 281 323 324 328 353 397 445 483 462 436 420 366 406 315 371 304 286 273 318 342 316 330 351 347 368 365 336 291 323 330 302 292 282 272 271 272 264 298 291 283 289 273 285 271 284 283 304 283 259 279 239 289 289 260 279 268 295 283 261 266 282 279 296 281 267 267 295 283 303 281 303 305 284 280 274 265 285 295 295 267 242 300 291 283 267 288 269 276 257 273 209 263 270 299 290 287 308 242 290 287 258 251 300 256 299 275 277 272 267 296 264 293 292 291 293 318 260 290 295 280 260 264 295 279 286 300 278 285 300 243 291 293 264 297 301 268 288 249 308 303 259 302 299 281 295 288 320 310 308 325 321 296 325 307 286 308 312 286 275 305 309 239 312 292 303 287 287 285 291 296 275 288 264 246 259 274 312 276 313 267 348 321 305 360 352 406 376 345 356 345 342 343 367 308 300 319 300 284 304 316 316 299 325 314 314 323 277 342 319 307 364 296 315 337 341 327 332 357 335 357 354 339 345 378 341 352 392 371 392 432 471 450 453 454 437 529 624 567 667 747 764 728 805 861 851 922 887 864 843 818 748 709 655 620 598 588 528 514 438 430 398 396 440 399 369 354 359 368 327 352 322 304 328 328 311 278 330 321 267 294 309 301 301 289 294 284 280 278 293 298 322 296 281 321 295 273 284 286 288 314 245 272 284 289 295 299 277 302 287 279 256 291 287 288 274 264 276 305 296 276 249 279 274 287 289 282 266 214 271 271 262 266 257 262 271 279 294 295 289 259 272 270 280 274 278 291 294 283 259 311 277 265 247 274 281 317 275 299 261 278 273 290 284 290 275 273 266 297 266 307 312 278 264 291 281 285 289 321 297 270 295 295 282 269 264 260 302 281 289 292 272 290 296 287 279 271 293 298 273 292 266 280 264 301 280 273 288 275 279 304 306 295 303 274 291 309 301 269 288 307 285 291 294 332 322 354 403 414 419 413 462 406 419 441 404 388 370 363 346 322 340 355 321 316 282 311 296 312 289 265 279 308 316 277 263 310 244 282 305 273 287 251 310 278 306 276 251 270 257 288 227 275 257 234 250 295 292 283 265 295 287 288 265 277 270 246 265 285 272 282 273 265 259 319 247 311 263 287 306 283 306 277 291 300 277 280 278 256 292 290 284 268 256 285 284 249 280 281 259 257 297 243 269 270 256 265 291 269 276 271 245 231 251 267 242 278 269 293 258 272 236 258 260 289 245 266 269 275 256 256 294 246 284 258 261 238 290 249 238 298 240 229 273 244 262 283 298 259 260 261 261 259 284 269 256 262 266 259 243 279 274 280 281 235 262 300 263 299 259 235 239 286 294 267 241 280 256 269 274 287 279 261 261 242 250 293 280 237 233 257 293 240 241 212 266 278 240 245 247 261 267 234 239 240 257 224 244 258 274 258 248 263 263 262 269 274 273 250 266 219 256 242 251 268 234 216 246 279 262 228 236 265 279 249 247 281 282 265 280 276 246 267 259 237 249 241 257 244 247 261 278 250 297 285 234 278 268 249 248 269 236 248 267 234 257 292 269 265 269 223 262 275 268 250 245 247 256 286 271 264 247 257 228 270 284 229 265 247 272 236 263 248 267 279 261 235 267 243 248 257 270 223 286 267 280 267 273 272 227 262 256 244 246 240 260 264 239 238 256 244 260 273 238 261 238 229 248 228 282 232 236 243 247 269 267 261 245 233 229 263 258 260 268 256 228 243 266 237 260 269 266 240 264 269 244 248 266 258 234 267 273 259 266 249 221 227 288 282 279 260 250 283 223 249 274 285 270 291 310 308 288 282 273 292 268 315 325 279 280 305 258 237 275 274 230 283 263 279 291 275 291 272 283 270 274 267 256 272 246 222 269 261 257 265 274 267 266 284 290 309 312 323 328 289 337 301 285 265 309 288 321 294 304 280 324 285 284 295 288 307 297 241 302 293 282 293 322 307 290 320 301 319 277 308 340 315 303 306 314 295 326 272 309 316 327 298 341 325 344 306 354 339 348 361 357 385 385 373 407 344 378 361 411 341 345 345 331 301 295 296 282 290 306 250 275 245 273 262 246 262 285 259 292 233 250 272 281 288 276 285 311 285 286 382 350 363 367 356 297 293 276 329 315 349 310 325 267 273 266 261 234 257 262 268 219 272 270 276 248 270 278 235 234 265 256 272 246 265 237 226 238 228 238 256 258 227 270 269 243 270 224 245 267 259 247 245 231 271 240 267 256 257 266 244 263 262 245 283 302 277 290 279 260 239 265 311 293 275 286 261 236 298 301 303 299 290 290 269 257 289 277 249 268 240 275 262 290 257 272 232 241 267 272 235 282 233 234 259 269 250 243 247 284 235 284 242 231 264 266 236 233 256 239 222 269 258 234 263 256 256 229 226 246 219 209 271 231 235 250 247 245 244 240 276 218 245 232 220 248 225 285 258 245 204 267 267 241 233 248 265 275 251 284 260 234 281 283 281 266 264 269 298 275 305 306 261 244 251 283 297 291 285 299 300 263 292 278 256 267 278 275 276 265 228 261 242 270 272 264 270 277 283 244 288 268 282 297 274 262 265 286 263 296 291 263 266 291 302 324 304 301 319 347 334 339 317 335 374 341 381 383 354 356 358 362 355 364 293 302 327 339 322 340 332 292 329 278 290 282 270 271 259 268 271 276 297 277 274 232 304 278 285 267 302 310 361 321 357 369 374 351 371 401 405 370 351 365 391 340 382 356 361 339 332 338 321 296 288 301 292 292 246 266 275 281 276 231 239 258 284 279 279 243 264 241 247 225 272 235 268 260 270 262 258 235 263 266 238 247 271 226 234 244 259 248 238 232 243 247 241 215 280 232 245 233 220 265 212 230 261 228 238 246 262 249 267 249 273 262 280 275 241 263 266 250 247 244 258 228 258 250 260 218 214 271 249 279 215 280 260 238 249 217 260 278 238 257 265 261 262 262 235 239 246 235 256 227 239 227 271 232 239 269 264 266 277 244 232 266 273 267 245 260 257 235 272 249 260 267 257 239 256 241 284 266 263 267 239 291 273 286 290 308 312 302 296 267 291 306 276 283 305 291 295 284 305 260 233 263 230 260 276 264 289 234 268 240 227 236 242 225 248 282 239 294 256 258 235 245 244 256 250 238 235 227 259 232 213 226 201 216 219 237 262 232 259 228 227 235</counts>
			</dataPoints>
		</scan>
	</xrdMeasurement>
</xrdMeasurements>
